c turning on binary mode checking
c parsing input formula with 259840 variables and 1039929 clauses
c finished parsing, read 23308987 bytes from proof file
c detected empty clause; start verification via backward checking
c 11588 of 1039929 clauses in core                            
c 16316 of 608413 lemmas in core using 179755 resolution steps
c 0 RAT lemmas in core; 1703 redundant literals in core lemmas
s VERIFIED
c verification time: 2.157 seconds
